6945
69,127,118,40,139,53,24,12,116,101,38,23,32,131,67,43,109,51,20,47,110,81,86,29,2,37,120,42,9,28,6,19,99,114,102,108,70,135,50,137,132,65,55,58,141,25,138,134,54,92,46,90,83,56,146,26,75,18,85,142,97,143,100,5,107,95,82,103,98,1,87,76,73,34,30,84,7,8,89,96,35,124,93,126,33,52,111,105,16,59,79,121,88,94,10,113,63,48,3,62,149,22,125,21,78,15,133,77,122,14,80,72,147,49,144,145,136,112,64,44,71,45,115,150,104,4,128,68,119,91,106,13,74,123,31,27,129,41,39,57,117,140,60,66,17,130,148,11,61,36,69
